c ====================[ Coprocessor 7.1.0                    v7.1.0-dirty ]================================
c | Norbert Manthey. The use of the tool is limited to research only!                                     |
c | Contributors:                                                                                         |
c |     Kilian Gebhard                                                                                    |
c |     Lucas Kahlert, Franziska Krüger, Aaron Stephan                                                    |
c ============================[ Problem Statistics ]=======================================================
c |                                                                                                       |
c |  Number of variables:           400                                                                  |
c |  Number of clauses:            2200                                                                   |
c |  Parse time:                   0.00 s                                                                 |
c [STAT] CP3 0.018124 s-ppTime, 0 s-ipTime, 0.0181236 s-ppwTime, 0 s-ipwTime, 9 MB, ok 0.000819 s-ohTime, 
c [STAT] CP3(2) 3208 cls, 0 learnts, -1008 rem-cls, 0 rem-learnts, 
c [STAT] UP 8e-06 s, 0 units, 0 cls, 0 lits
c [STAT] SuSi(1) 0.000683 s, 0 cls,  with 0 lits, 0 strengthed 
c [STAT] SuSi(2) 16405 subs-steps, 28713 strenght-steps, 0 increases, 0.001467s strengthening 
c [STAT] EE 0.001511 s, 0 steps 0 ee-lits 0 removedCls, 0 removedSubCls,
c [STAT] EE-gate 0.000103 s, 0 steps, 0.001182 extractGateTime, 
c [STAT] BVE(1) 0.000834 s, 0.000111 s spent on subsimp, 75 vars tested, 75 anticipations, 652 vars skipped, 3701 checks, 
c [STAT] BVE(2) 461 rem cls, with 1432 lits, 0 learnts rem, with 0 lits, 1469 new cls, with 6098 lits, 0 new learnts, with 0 lits, 
c [STAT] BVE(3) 31 vars eliminated, 0 units enqueued, 0 BC removed, with 0 lits, 0 blocked learnts removed, with 0 lits, 
c [STAT] BVE(4) 0 gateDefs, 0 usedGates, 0 gateSeconds, 
c [STAT] BVE(5) 31 incElims, 0 keepElims, 0 decElims, 1008 totalAdds,
c [STAT] UNHIDE 0.002272 s, 0 cls, 0 totalLits, 0 lits 
c [STAT] UNHIDE(2) 0 prSecs, 0 prSteps, 0 L1units, 0 L2units, 0 L3units, 0 L4units, 0 L5units, 
c [STAT] UNHIDE(3) 0 EE-checks, 0 EE-cands, 0 EEs 
c [STAT] XOR 0.001596s, 0.001513 parse-s, 6.9e-05 reason-s, 
c [STAT] XOR(2) 0 xors, 0 subXors, 0 resXors, 0 clauses, 0 resClauses, 0 resTauts, 0 resStrength, 5404 findChecks, 
c [STAT] XOR(3) 0 steps, 800 empties, 0 listUnits, 0 useLists, 0 xorUnits, 0 eqs, 
c [STAT] XOR(4) 3205 participating, 0.873535 ratio, 0 simDecisions, 0 xorProps, 0 clsProps, 
c [STAT] BCE 0.001951 seconds, 22864 steps, 1476 testLits, 0 remBCE, 0 BCMs, 0 BCMcands, 0 BCMlits, 
c [STAT] CLE 0 remCLE, 0 cleUnits, 
c [STAT] BCE-CLA 0 seconds, 0 steps, 0 testLits, 0 extClss, 0 extLits, 0 possibles, 
c [STAT] FM 0.006559 s, 0.000235 amo-s, 0.009187 fm-s, 0.001395 amt-s, 0 amos, 0 amts, 0 sameUnits, 0 deducedUnits, 0 propUnits, 0 cls, 0 steps, 33811 searchSteps, 0 addDups, 
c [STAT] FM(2) 0 irregulars, 0 pureAmoLits, 0 diff, 0 discards, 0 addedCs, 0 removedCs, 0 newAmos, 0 discardedNewAmos, 
c [STAT] FM(3) 0 newAmoBinCls, 0 newCls, 0 newAlos, 0 newAlks, 0 duplicates, 0 garbageCollecst, 
c [STAT] FM(4) 1.9e-05 2PrdTime, 0 2PrAmos, 0 2PrLits, 3e-06 dedAloTime, 0 dedAlos, 
c [STAT] FM(5) time: 0.004656 s,steps: 31747 cards: 0 failed: 5408 extLits: 0 redDegree: 0 probes: 5997 conflictProbes: 1 savedPreCls: 0 savedPostCls: 0 units: 14109
c [STAT] DENSE 31 gaps
c |  Simplification time:          0.02 s                                                                 |
c |                                                                                                       |
c ==============================[ Writing DIMACS ]=========================================================
c =============================[ Writing Undo Info ]=======================================================
c write undo for 247 clauses and 0 units
c preprocessed 0 seconds
c starting sparrow solver
c Instance name       :  /home/lorenz/SAT2018/s2r_bin/tmp/cp_tmpCNF_47394
c Number of variables :  369
c Number of literals  :  738
c Number of Clauses   :  3208
c MaxNumOccurences    :  59
c MaxClauseSize       :  5
c MinClauseSize       :  3
c Ratio               :  8.6938
c Parameter setting   :  5 SAT

c Sparrow 2014 Parameteres: 
c c1                  : 2.8500
c c2                  : 4
c c3                  : 75000
c smoothing prob.     : 1.000
c seed                : 0
c XOR implementation  : yes
c using:              : random clause selection
c maxTries            : 9223372036854775807
c maxFlips            : 500000000
c timeout             : 900sec
c luby restarts       : yes
c luby base           : 262144
c keep assignement    : yes
c sp sequence:        : 0.000, 0.100, 0.600, 1.000, 0.900, 0.600, 0.800, 0.600, 0.000, 
c -->Starting solver  : 

c UNKNOWN best(   4) current(  15) (4.55000        sec)
c EndStatistics:
c numFlips                      : 13722880 
c numProbWalks                  : 11654939  (84.93%) 
c gradientWalks                 : 2067941   (15.07%) 
c numSmooth                     : 0         (0.00%) 
c numWeight                     : 0         (0.00%) 
c Try CPU Time                  : 4.550   
c totalTries                    : 508      
c totalFlips                    : 500000000
c flips/sec                     : 2356712 
c Total CPU Time                : 212.160 sec
c solved 212 seconds
c parse model from /home/lorenz/SAT2018/s2r_bin/tmp/cp_model_47394
c WARNING: could not find any solution information!
c opened var map /home/lorenz/SAT2018/s2r_bin/tmp/cp_undo_47394.map for reading ... 
c use Riss 7.1
c [STAT] CP3 0.015034 s-ppTime, 0 s-ipTime, 0.0158343 s-ppwTime, 0 s-ipwTime, 9 MB, ok 9e-05 s-ohTime, 
c [STAT] CP3(2) 3155 cls, 0 learnts, -955 rem-cls, 0 rem-learnts, 
c [STAT] UP 6e-06 s, 0 units, 0 cls, 0 lits
c [STAT] SuSi(1) 0.000427 s, 0 cls,  with 0 lits, 0 strengthed 
c [STAT] SuSi(2) 15497 subs-steps, 33799 strenght-steps, 0 increases, 0.00103s strengthening 
c [STAT] EE 0.000933 s, 0 steps 0 ee-lits 0 removedCls, 0 removedSubCls,
c [STAT] EE-gate 6.8e-05 s, 0 steps, 0.000734 extractGateTime, 
c [STAT] BVE(1) 0.002583 s, 0.001562 s spent on subsimp, 56 vars tested, 56 anticipations, 682 vars skipped, 3176 checks, 
c [STAT] BVE(2) 624 rem cls, with 1913 lits, 0 learnts rem, with 0 lits, 1579 new cls, with 6510 lits, 0 new learnts, with 0 lits, 
c [STAT] BVE(3) 56 vars eliminated, 0 units enqueued, 0 BC removed, with 0 lits, 0 blocked learnts removed, with 0 lits, 
c [STAT] BVE(4) 0 gateDefs, 0 usedGates, 6.5e-05 gateSeconds, 
c [STAT] BVE(5) 52 incElims, 0 keepElims, 4 decElims, 955 totalAdds,
c [STAT] UNHIDE 0.001811 s, 0 cls, 0 totalLits, 0 lits 
c [STAT] UNHIDE(2) 0 prSecs, 0 prSteps, 0 L1units, 0 L2units, 0 L3units, 0 L4units, 0 L5units, 
c [STAT] UNHIDE(3) 0 EE-checks, 0 EE-cands, 0 EEs 
c [STAT] XOR 0.001644s, 0.001584 parse-s, 5.3e-05 reason-s, 
c [STAT] XOR(2) 0 xors, 0 subXors, 0 resXors, 0 clauses, 0 resClauses, 0 resTauts, 0 resStrength, 5350 findChecks, 
c [STAT] XOR(3) 0 steps, 800 empties, 0 listUnits, 0 useLists, 0 xorUnits, 0 eqs, 
c [STAT] XOR(4) 3151 participating, 0.833818 ratio, 0 simDecisions, 0 xorProps, 0 clsProps, 
c [STAT] BCE 0.002117 seconds, 22692 steps, 1376 testLits, 0 remBCE, 0 BCMs, 0 BCMcands, 0 BCMlits, 
c [STAT] CLE 0 remCLE, 0 cleUnits, 
c [STAT] BCE-CLA 0 seconds, 0 steps, 0 testLits, 0 extClss, 0 extLits, 0 possibles, 
c [STAT] FM 0.005414 s, 0.000191 amo-s, 0.009378 fm-s, 0.001095 amt-s, 0 amos, 0 amts, 0 sameUnits, 0 deducedUnits, 0 propUnits, 0 cls, 0 steps, 33282 searchSteps, 0 addDups, 
c [STAT] FM(2) 0 irregulars, 0 pureAmoLits, 0 diff, 0 discards, 0 addedCs, 0 removedCs, 0 newAmos, 0 discardedNewAmos, 
c [STAT] FM(3) 0 newAmoBinCls, 0 newCls, 0 newAlos, 0 newAlks, 0 duplicates, 0 garbageCollecst, 
c [STAT] FM(4) 4e-06 2PrdTime, 0 2PrAmos, 0 2PrLits, 2e-06 dedAloTime, 0 dedAlos, 
c [STAT] FM(5) time: 0.003921 s,steps: 31181 cards: 0 failed: 5355 extLits: 0 redDegree: 0 probes: 5887 conflictProbes: 0 savedPreCls: 0 savedPostCls: 0 units: 13886
c [STAT] DENSE 56 gaps
c Riss 7.1 used 2 seconds with exit code 10
c pp-time: 0 SLS-time: 212  CDCL-time: 2
c solved with: Riss 7.1
 c
c SparrowToRiss 2018
c Adrian Balint, Norbert Manthey
c
c undo: /home/lorenz/SAT2018/s2r_bin/tmp/cp_undo_47394 tmpCNF: /home/lorenz/SAT2018/s2r_bin/tmp/cp_tmpCNF_47394 model: /home/lorenz/SAT2018/s2r_bin/tmp/cp_model_47394 realModel: /home/lorenz/SAT2018/s2r_bin/tmp/model_47394
c preprocessed 0 seconds with exit code 0
c not solved by preprocessor -- do search
c post-process with coprocessor
c WARNING: for repeatability, setting FPU to use double precision
c =================[ riss (core) 7.1.0                    v7.1.0-dirty ]===================================
c | Norbert Manthey. The use of the tool is limited to research only!                                     |
c | Based on Minisat 2.2 and Glucose 2.1  -- thanks!                                                      |
c | Contributors:                                                                                         |
c |      Kilian Gebhardt                                                                                  |
c |      Lucas Kahlert, Franziska Krüger, Aaron Stephan                                                   |
c ============================[ Problem Statistics ]=======================================================
c |                                                                                                       |
c |  Number of variables:                400                                                              |
c |  Number of clauses:                 2200                                                              |
c |  Number of total literals:          6600                                                              |
c |  Parse time:                        0.00 s                                                            |
c |                                                                                                       |
c ========================================[ MAGIC CONSTANTS ]==============================================
c | Constants are supposed to work well together :-)                                                      |
c | however, if you find better choices, please let us known...                                           |
c |-------------------------------------------------------------------------------------------------------|
c |                                |                                |                                     |
c | - Restarts:                    | - Reduce Clause DB:            | - Minimize Asserting:               |
c |   * LBD Queue    :     50      |   * First     :   4000         |    * size <  30                     |
c |   * Trail  Queue :   5000      |   * Inc       :    300         |    * lbd  <   6                     |
c |   * K            :   0.80      |   * Special   :   1000         |                                     |
c |   * R            :   1.40      |   * Protected :  (lbd)< 30     |                                     |
c |                                |                                |                                     |
c =========================================================================================================
c =========================================================================================================
c | solve clauses:         3155  solve variables:          344                                            |
c =========================================================================================================
c ==================================[ Search Statistics (every  10000 conflicts) ]=========================
c |                                                                                                       |
c |          RESTARTS           |          ORIGINAL         |              LEARNT              | Progress |
c |       NB   Blocked  Avg Cfc |    Vars  Clauses Literals |   Red   Learnts    LBD2  Removed |          |
c =========================================================================================================
c |        3         0     3333 |     400     3155    11197 |     1     8040       31     1959 |  0.001 % | 
c |        3       144     6666 |     400     3155    11197 |     3     7140       48    12859 |  0.001 % | 
c |        3       301    10000 |     400     3155    11197 |     3    17140       53    12859 |  0.001 % | 
c |        6       442     6666 |     400     3155    11197 |     4    17949       65    22050 |  0.001 % | 
c =========================================================================================================
c Tinimt-Ratios: ratioCpW: 0.93 ,overhead/Total 0.31 0.29 
c Timing(cpu,wall, in s): total: 1.73 1.86 ,prop: 0.98 1.08 ,analysis: 0.19 0.21 ,ext.Res.: 0.00 0.00 ,reduce: 0.01 0.01 ,overhead 0.54 0.55
c PP-Timing(cpu,wall, in s): preprocessing( 1 ): 0.02 0.02 ,inprocessing (0 ): 0.00 0.00
c Trivial Polarity: True: 0  False: 0
c Learnt At Level 1: 0  Multiple: 0 Units: 0
c LAs: 0.000000 laSeconds 0 LA assigned: 0 tabus: 0, failedLas: 0, maxEvery 0, eeV: 0 eeL: 0 
c otfss: 0 (l1: 0 ),cls: 0 ,units: 0 ,binaries: 0, eagerCandidates: 0
c learning: 46567 cls, 15.217643 avg. size, 10.160350 avg. LBD, 38 maxSize
c res.ext.res.: 0 rer, 0 rerSizeCands, 0 sizeReject, 0 patternReject, 0 bloomReject, 0 maxSize, 0.00 avgSize, 0.00 totalLits, 0 gates
c ER rewrite: 0 cls, 0 lits
c i.cls.strengthening: 0.00 seconds, 0 calls, 0 candidates, 0 droppedBefore, 0 shrinked, 0 shrinkedLits
c bi-asserting: 0 pre-Mini, 0 post-Mini, 0.000 rel-pre, 0.000 rel-post
c search-UHLE: 0 attempts, 0 rem-lits
c revMin: 5452 tries 15 succesful 15 dropped 0 cut 15 conflicts
c decisionClauses: 0
c IntervalRestarts: 0
c partial restarts: 0 saved decisions: 0 saved propagations: 0 recursives: 4
c uhd probe: 0.000000 s, 0 L2units, 0 L3units, 0 L4units
c LCM: 0.339484 s, 1 nbLCM, 7891 LCMclsAttempts, 1346 nbLCMclsSuccess, 1171 npConflLCMlits, 2957 nbLCMlits, 0 falsified, 0 positiveDrop, 2784 litsR1, 173 litsR2
c restarts              : 10 (4656 conflicts in avg)
c blocked restarts      : 537 (multiple: 7) 
c last block at restart : 10
c nb ReduceDB           : 5
c nb removed Clauses    : 33786
c nb learnts DL2        : 81
c nb learnts size 2     : 0
c nb learnts size 1     : 0
c conflicts             : 46567          (26908 /sec)
c decisions             : 55165          (0.00 % random) (31876 /sec)
c propagations          : 2521794        (1457157 /sec)
c conflict literals     : 708655         (22.34 % deleted)
c nb reduced Clauses    : 0
c Memory used           : 9.00 MB
c CPU time              : 1.73063 s
s SATISFIABLE
v 1 2 3 -4 5 6 7 8 -9 10 -11 -12 -13 14 -15 16 -17 -18 19 -20 -21 -22 -23 -24 25 -26 -27 28 29 30 -31 -32 -33 34 -35 -36 -37 -38 39 40 41 42 -43 -44 -45 46 47 -48 49 -50 -51 -52 53 54 -55 -56 57 58 59 60 61 -62 63 -64 65 66 67 68 -69 70 71 -72 73 74 -75 76 77 -78 -79 80 81 82 -83 -84 85 -86 -87 88 -89 90 -91 92 -93 -94 -95 96 -97 98 -99 -100 -101 102 103 -104 105 106 107 -108 -109 110 111 112 -113 -114 115 116 -117 -118 -119 120 -121 -122 -123 124 -125 126 127 -128 129 130 131 132 -133 134 135 136 -137 138 -139 -140 141 -142 143 144 -145 -146 147 148 149 150 151 152 -153 154 155 -156 -157 -158 -159 -160 -161 -162 163 164 165 166 167 -168 -169 -170 -171 172 173 174 -175 -176 177 178 179 -180 181 -182 -183 184 -185 -186 187 -188 189 190 191 192 -193 194 195 -196 197 198 -199 -200 -201 202 -203 -204 205 206 -207 208 209 210 211 212 213 -214 215 216 217 -218 219 -220 221 -222 223 -224 -225 -226 227 -228 -229 230 231 -232 -233 -234 235 -236 237 -238 239 -240 -241 242 -243 244 245 -246 -247 -248 249 250 251 252 -253 -254 -255 -256 -257 258 259 260 -261 -262 -263 -264 -265 -266 267 -268 269 270 271 272 -273 274 275 276 -277 278 -279 280 -281 -282 -283 -284 -285 -286 -287 288 289 290 -291 292 293 294 -295 -296 297 -298 299 300 301 302 -303 -304 -305 306 -307 -308 -309 310 311 -312 -313 -314 -315 316 -317 -318 -319 320 321 -322 -323 -324 325 -326 327 328 -329 -330 -331 332 333 -334 335 336 337 -338 339 -340 341 -342 -343 -344 345 346 -347 348 349 350 351 352 -353 -354 -355 356 357 358 -359 -360 361 -362 363 364 -365 -366 -367 -368 369 370 -371 372 -373 374 -375 -376 -377 -378 -379 380 381 -382 383 384 385 386 387 -388 -389 -390 391 392 393 -394 -395 -396 397 398 399 400 0

